
%FILE DATA:	Soccer Computational Problem for MiniZinc Models	%
%AUTHOR:	Jack Wall	%
%CONTACT:  	116397063@umail.ucc.ie			%
%LAST UPDATE:	03/12/2020, 10:36:46						%
%DESCRIPTION: 	117 games played with 39 games left				%


n=13; %number of teams

%Games to play
games=[|13,6|6,8|6,12|11,7|9,11|12,1|7,8|1,11|7,4|3,13|13,10|1,6|1,2|3,2|7,9|12,6|4,13|5,8|13,8|3,10|2,3|4,11|3,1|2,6|7,13|5,2|6,1|9,12|5,7|6,9|13,9|7,11|6,4|9,5|4,6|13,4|12,11|4,8|2,11|];

%Initial points
iPoints=[31,24,30,20,26,25,20,17,31,23,28,16,25];

%POSITION CONSTRAINTS
% [|teamID, operator, position|...]
% operators index:
%  1 for =  operator
%  2 for >  operator
%  3 for >= operator
%  4 for <  operator
%  5 for <= operator
positionConstraints=[|11,1,1|6,2,1|];